
Gurobi 9.5.0 (win64) logging started Tue Dec  7 12:39:46 2021

Set parameter LogFile to value "../results/logs/log_2021_12_07_12_26.csv_9_30.log"
Set parameter Method to value 3
Gurobi Optimizer version 9.5.0 build v9.5.0rc5 (win64)
Thread count: 6 physical cores, 12 logical processors, using up to 12 threads
Optimize a model with 238 rows, 9882 columns and 8569 nonzeros
Model fingerprint: 0xdf613520
Variable types: 4941 continuous, 4941 integer (4941 binary)
Coefficient statistics:
  Matrix range     [1e+00, 9e+00]
  Objective range  [1e+00, 1e+00]
  Bounds range     [1e+00, 1e+00]
  RHS range        [1e+00, 3e+01]
Found heuristic solution: objective -0.0000000
Presolve removed 171 rows and 9770 columns
Presolve time: 0.01s
Presolved: 67 rows, 112 columns, 402 nonzeros
Extracted 24 lazy constraints
Variable types: 60 continuous, 52 integer (51 binary)

Root relaxation: objective 3.647222e+01, 60 iterations, 0.00 seconds (0.00 work units)

    Nodes    |    Current Node    |     Objective Bounds      |     Work
 Expl Unexpl |  Obj  Depth IntInf | Incumbent    BestBd   Gap | It/Node Time

     0     0   36.47222    0   17   -0.00000   36.47222      -     -    0s
H    0     0                       5.0000000   36.47222   629%     -    0s
     0     0   18.03452    0   18    5.00000   18.03452   261%     -    0s
H    0     0                      16.0000000   16.41835  2.61%     -    0s
     0     0   16.40107    0   11   16.00000   16.40107  2.51%     -    0s

Cutting planes:
  Gomory: 8
  Implied bound: 5
  MIR: 23
  RLT: 3
  Relax-and-lift: 3
  Lazy constraints: 24

Explored 1 nodes (183 simplex iterations) in 0.02 seconds (0.01 work units)
Thread count was 12 (of 12 available processors)

Solution count 3: 16 5 -0 

Optimal solution found (tolerance 1.00e-04)
Best objective 1.600000000000e+01, best bound 1.600000000000e+01, gap 0.0000%
